
Gurobi 11.0.1 (win64) logging started Mon May 13 15:45:38 2024

Set parameter LogFile to value "output/solver_log38.txt"
Gurobi Optimizer version 11.0.1 build v11.0.1rc0 (win64 - Windows 11.0 (22631.2))

CPU model: 11th Gen Intel(R) Core(TM) i7-1165G7 @ 2.80GHz, instruction set [SSE2|AVX|AVX2|AVX512]
Thread count: 4 physical cores, 8 logical processors, using up to 8 threads

Optimize a model with 2365 rows, 502 columns and 43957 nonzeros
Model fingerprint: 0x6a1eb41c
Variable types: 248 continuous, 254 integer (254 binary)
Coefficient statistics:
  Matrix range     [4e-01, 1e+05]
  Objective range  [1e+00, 1e+02]
  Bounds range     [1e+00, 1e+00]
  RHS range        [1e-02, 1e+05]

User MIP start produced solution with objective 78060.6 (0.01s)
User MIP start produced solution with objective 78060.6 (0.01s)
Loaded user MIP start with objective 78060.6

Presolve removed 145 rows and 134 columns
Presolve time: 0.05s
Presolved: 2220 rows, 368 columns, 42673 nonzeros
Variable types: 228 continuous, 140 integer (137 binary)

Root relaxation: cutoff, 18 iterations, 0.01 seconds (0.01 work units)

    Nodes    |    Current Node    |     Objective Bounds      |     Work
 Expl Unexpl |  Obj  Depth IntInf | Incumbent    BestBd   Gap | It/Node Time

     0     0     cutoff    0      78060.6326 78060.6326  0.00%     -    0s

Explored 1 nodes (18 simplex iterations) in 0.13 seconds (0.19 work units)
Thread count was 8 (of 8 available processors)

Solution count 2: 78060.6 78060.6 

Optimal solution found (tolerance 1.00e-04)
Best objective 7.806063259032e+04, best bound 7.806063259032e+04, gap 0.0000%
